Route #1: 11 12 38 3 35 25 7 31
Route #2: 30 6 18 32 47 26 42 16 34 65 37
Route #3: 41 22 8 2
Route #4: 43 54 68 67 39 74 50
Route #5: 52 78 75 61 40 4
Route #6: 63 64 24 45 13 14
Route #7: 71 77 51 46 23 5 33 59
Route #8: 72 15 49 19 80 29 53
Route #9: 73 55 10 56 57 70 66 36 27 48 20 21 28
Route #10: 79 9 69 44 17 62 58 76 60
cost 1812